NAME : cgl_73.6148.tour
COMMENT : Length = 6148
COMMENT : Found by LKH-3 [Keld Helsgaun] Fri Nov  8 17:38:21 2024
TYPE : TOUR
DIMENSION : 74
TOUR_SECTION
18
19
20
16
14
12
9
13
10
11
1
25
24
72
73
26
31
30
29
27
28
56
57
41
35
38
36
34
33
39
37
58
32
45
44
43
40
46
42
55
48
51
49
47
52
50
53
54
59
62
67
65
63
66
64
61
60
69
68
70
71
23
74
21
22
3
5
8
6
4
7
2
15
17
-1
EOF
